1 2
2 1
3 2
4 1
5 2
6 1
7 2
8 1
9 2
10 1
11 2
12 1
13 2
14 1
15 2
16 1
17 2
18 1
19 2
20 1
21 2
22 1
23 2
24 1
25 2
26 1
27 2
28 1
29 2
30 1
31 2
32 1
33 2
34 1
35 2
36 1
37 2
38 1
39 2
40 1
41 2
42 1
43 2
44 1
45 2
46 1
47 2
48 1
49 2
50 1
51 2
52 1
53 2
54 1
55 2
56 1
57 2
58 1
59 2
60 1
61 2
62 1
63 2
64 1
65 2
66 1
67 2
68 1
69 2
70 1
71 2
72 1
73 2
74 1
75 2
76 1
77 2
78 1
79 2
80 1
81 2
82 1
83 2
84 1
85 2
86 1
87 2
88 1
89 2
90 1
91 2
92 1
93 2
94 1
95 2
96 1
97 2
98 1
99 2
100 1
101 1
102 2
103 1
104 2
105 1
106 2
107 1
108 2
109 1
110 2
111 1
112 2
113 1
114 2
115 1
116 2
117 1
118 2
119 1
120 2
121 1
122 2
123 1
124 2
125 1
126 2
127 1
128 2
129 1
130 2
131 1
132 2
133 1
134 2
135 1
136 2
137 1
138 2
139 1
140 2
141 1
142 2
143 1
144 2
145 1
146 2
147 1
148 2
149 1
150 2
151 1
152 2
153 1
154 2
155 1
156 2
157 1
158 2
159 1
160 2
161 1
162 2
163 1
164 2
165 1
166 2
167 1
168 2
169 1
170 2
171 1
172 2
173 1
174 2
175 1
176 2
177 1
178 2
179 1
180 2
181 1
182 2
183 1
184 2
185 1
186 2
187 1
188 2
189 1
190 2
191 1
192 2
193 1
194 2
195 1
196 2
197 1
198 2
199 1
200 2
201 2
202 1
203 2
204 1
205 2
206 1
207 2
208 1
209 2
210 1
211 2
212 1
213 2
214 1
215 2
216 1
217 2
218 1
219 2
220 1
221 2
222 1
223 2
224 1
225 2
226 1
227 2
228 1
229 2
230 1
231 2
232 1
233 2
234 1
235 2
236 1
237 2
238 1
239 2
240 1
241 2
242 1
243 2
244 1
245 2
246 1
247 2
248 1
249 2
250 1
251 2
252 1
253 2
254 1
255 2
256 1
257 2
258 1
259 2
260 1
261 2
262 1
263 2
264 1
265 2
266 1
267 2
268 1
269 2
270 1
271 2
272 1
273 2
274 1
275 2
276 1
277 2
278 1
279 2
280 1
281 2
282 1
283 2
284 1
285 2
286 1
287 2
288 1
289 2
290 1
291 2
292 1
293 2
294 1
295 2
296 1
297 2
298 1
299 2
300 1
301 1
302 2
303 1
304 2
305 1
306 2
307 1
308 2
309 1
310 2
311 1
312 2
313 1
314 2
315 1
316 2
317 1
318 2
319 1
320 2
321 1
322 2
323 1
324 2
325 1
326 2
327 1
328 2
329 1
330 2
331 1
332 2
333 1
334 2
335 1
336 2
337 1
338 2
339 1
340 2
341 1
342 2
343 1
344 2
345 1
346 2
347 1
348 2
349 1
350 2
351 1
352 2
353 1
354 2
355 1
356 2
357 1
358 2
359 1
360 2
361 1
362 2
363 1
364 2
365 1
366 2
367 1
368 2
369 1
370 2
371 1
372 2
373 1
374 2
375 1
376 2
377 1
378 2
379 1
380 2
381 1
382 2
383 1
384 2
385 1
386 2
387 1
388 2
389 1
390 2
391 1
392 2
393 1
394 2
395 1
396 2
397 1
398 2
399 1
400 2
401 2
402 1
403 2
404 1
405 2
406 1
407 2
408 1
409 2
410 1
411 2
412 1
413 2
414 1
415 2
416 1
417 2
418 1
419 2
420 1
421 2
422 1
423 2
424 1
425 2
426 1
427 2
428 1
429 2
430 1
431 2
432 1
433 2
434 1
435 2
436 1
437 2
438 1
439 2
440 1
441 2
442 1
443 2
444 1
445 2
446 1
447 2
448 1
449 2
450 1
451 2
452 1
453 2
454 1
455 2
456 1
457 2
458 1
459 2
460 1
461 2
462 1
463 2
464 1
465 2
466 1
467 2
468 1
469 2
470 1
471 2
472 1
473 2
474 1
475 2
476 1
477 2
478 1
479 2
480 1
481 2
482 1
483 2
484 1
485 2
486 1
487 2
488 1
489 2
490 1
491 2
492 1
493 2
494 1
495 2
496 1
497 2
498 1
499 2
500 1
501 1
502 2
503 1
504 2
505 1
506 2
507 1
508 2
509 1
510 2
511 1
512 2
513 1
514 2
515 1
516 2
517 1
518 2
519 1
520 2
521 1
522 2
523 1
524 2
525 1
526 2
527 1
528 2
529 1
530 2
531 1
532 2
533 1
534 2
535 1
536 2
537 1
538 2
539 1
540 2
541 1
542 2
543 1
544 2
545 1
546 2
547 1
548 2
549 1
550 2
551 1
552 2
553 1
554 2
555 1
556 2
557 1
558 2
559 1
560 2
561 1
562 2
563 1
564 2
565 1
566 2
567 1
568 2
569 1
570 2
571 1
572 2
573 1
574 2
575 1
576 2
577 1
578 2
579 1
580 2
581 1
582 2
583 1
584 2
585 1
586 2
587 1
588 2
589 1
590 2
591 1
592 2
593 1
594 2
595 1
596 2
597 1
598 2
599 1
600 2
601 2
602 1
603 2
604 1
605 2
606 1
607 2
608 1
609 2
610 1
611 2
612 1
613 2
614 1
615 2
616 1
617 2
618 1
619 2
620 1
621 2
622 1
623 2
624 1
625 2
626 1
627 2
628 1
629 2
630 1
631 2
632 1
633 2
634 1
635 2
636 1
637 2
638 1
639 2
640 1
641 2
642 1
643 2
644 1
645 2
646 1
647 2
648 1
649 2
650 1
651 2
652 1
653 2
654 1
655 2
656 1
657 2
658 1
659 2
660 1
661 2
662 1
663 2
664 1
665 2
666 1
667 2
668 1
669 2
670 1
671 2
672 1
673 2
674 1
675 2
676 1
677 2
678 1
679 2
680 1
681 2
682 1
683 2
684 1
685 2
686 1
687 2
688 1
689 2
690 1
691 2
692 1
693 2
694 1
695 2
696 1
697 2
698 1
699 2
700 1
701 1
702 2
703 1
704 2
705 1
706 2
707 1
708 2
709 1
710 2
711 1
712 2
713 1
714 2
715 1
716 2
717 1
718 2
719 1
720 2
721 1
722 2
723 1
724 2
725 1
726 2
727 1
728 2
729 1
730 2
731 1
732 2
733 1
734 2
735 1
736 2
737 1
738 2
739 1
740 2
741 1
742 2
743 1
744 2
745 1
746 2
747 1
748 2
749 1
750 2
751 1
752 2
753 1
754 2
755 1
756 2
757 1
758 2
759 1
760 2
761 1
762 2
763 1
764 2
765 1
766 2
767 1
768 2
769 1
770 2
771 1
772 2
773 1
774 2
775 1
776 2
777 1
778 2
779 1
780 2
781 1
782 2
783 1
784 2
785 1
786 2
787 1
788 2
789 1
790 2
791 1
792 2
793 1
794 2
795 1
796 2
797 1
798 2
799 1
800 2
801 2
802 1
803 2
804 1
805 2
806 1
807 2
808 1
809 2
810 1
811 2
812 1
813 2
814 1
815 2
816 1
817 2
818 1
819 2
820 1
821 2
822 1
823 2
824 1
825 2
826 1
827 2
828 1
829 2
830 1
831 2
832 1
833 2
834 1
835 2
836 1
837 2
838 1
839 2
840 1
841 2
842 1
843 2
844 1
845 2
846 1
847 2
848 1
849 2
850 1
851 2
852 1
853 2
854 1
855 2
856 1
857 2
858 1
859 2
860 1
861 2
862 1
863 2
864 1
865 2
866 1
867 2
868 1
869 2
870 1
871 2
872 1
873 2
874 1
875 2
876 1
877 2
878 1
879 2
880 1
881 2
882 1
883 2
884 1
885 2
886 1
887 2
888 1
889 2
890 1
891 2
892 1
893 2
894 1
895 2
896 1
897 2
898 1
899 2
900 1
901 1
902 2
903 1
904 2
905 1
906 2
907 1
908 2
909 1
910 2
911 1
912 2
913 1
914 2
915 1
916 2
917 1
918 2
919 1
920 2
921 1
922 2
923 1
924 2
925 1
926 2
927 1
928 2
929 1
930 2
931 1
932 2
933 1
934 2
935 1
936 2
937 1
938 2
939 1
940 2
941 1
942 2
943 1
944 2
945 1
946 2
947 1
948 2
949 1
950 2
951 1
952 2
953 1
954 2
955 1
956 2
957 1
958 2
959 1
960 2
961 1
962 2
963 1
964 2
965 1
966 2
967 1
968 2
969 1
970 2
971 1
972 2
973 1
974 2
975 1
976 2
977 1
978 2
979 1
980 2
981 1
982 2
983 1
984 2
985 1
986 2
987 1
988 2
989 1
990 2
991 1
992 2
993 1
994 2
995 1
996 2
997 1
998 2
999 1
1000 2
1001 2
1002 1
1003 2
1004 1
1005 2
1006 1
1007 2
1008 1
1009 2
1010 1
1011 2
1012 1
1013 2
1014 1
1015 2
1016 1
1017 2
1018 1
1019 2
1020 1
1021 2
1022 1
1023 2
1024 1
1025 2
1026 1
1027 2
1028 1
1029 2
1030 1
1031 2
1032 1
1033 2
1034 1
1035 2
1036 1
1037 2
1038 1
1039 2
1040 1
1041 2
1042 1
1043 2
1044 1
1045 2
1046 1
1047 2
1048 1
1049 2
1050 1
1051 2
1052 1
1053 2
1054 1
1055 2
1056 1
1057 2
1058 1
1059 2
1060 1
1061 2
1062 1
1063 2
1064 1
1065 2
1066 1
1067 2
1068 1
1069 2
1070 1
1071 2
1072 1
1073 2
1074 1
1075 2
1076 1
1077 2
1078 1
1079 2
1080 1
1081 2
1082 1
1083 2
1084 1
1085 2
1086 1
1087 2
1088 1
1089 2
1090 1
1091 2
1092 1
1093 2
1094 1
1095 2
1096 1
1097 2
1098 1
1099 2
1100 1
1101 1
1102 2
1103 1
1104 2
1105 1
1106 2
1107 1
1108 2
1109 1
1110 2
1111 1
1112 2
1113 1
1114 2
1115 1
1116 2
1117 1
1118 2
1119 1
1120 2
1121 1
1122 2
1123 1
1124 2
1125 1
1126 2
1127 1
1128 2
1129 1
1130 2
1131 1
1132 2
1133 1
1134 2
1135 1
1136 2
1137 1
1138 2
1139 1
1140 2
1141 1
1142 2
1143 1
1144 2
1145 1
1146 2
1147 1
1148 2
1149 1
1150 2
1151 1
1152 2
1153 1
1154 2
1155 1
1156 2
1157 1
1158 2
1159 1
1160 2
1161 1
1162 2
1163 1
1164 2
1165 1
1166 2
1167 1
1168 2
1169 1
1170 2
1171 1
1172 2
1173 1
1174 2
1175 1
1176 2
1177 1
1178 2
1179 1
1180 2
1181 1
1182 2
1183 1
1184 2
1185 1
1186 2
1187 1
1188 2
1189 1
1190 2
1191 1
1192 2
1193 1
1194 2
1195 1
1196 2
1197 1
1198 2
1199 1
1200 2
1201 2
1202 1
1203 2
1204 1
1205 2
1206 1
1207 2
1208 1
1209 2
1210 1
1211 2
1212 1
1213 2
1214 1
1215 2
1216 1
1217 2
1218 1
1219 2
1220 1
1221 2
1222 1
1223 2
1224 1
1225 2
1226 1
1227 2
1228 1
1229 2
1230 1
1231 2
1232 1
1233 2
1234 1
1235 2
1236 1
1237 2
1238 1
1239 2
1240 1
1241 2
1242 1
1243 2
1244 1
1245 2
1246 1
1247 2
1248 1
1249 2
1250 1
1251 2
1252 1
1253 2
1254 1
1255 2
1256 1
1257 2
1258 1
1259 2
1260 1
1261 2
1262 1
1263 2
1264 1
1265 2
1266 1
1267 2
1268 1
1269 2
1270 1
1271 2
1272 1
1273 2
1274 1
1275 2
1276 1
1277 2
1278 1
1279 2
1280 1
1281 2
1282 1
1283 2
1284 1
1285 2
1286 1
1287 2
1288 1
1289 2
1290 1
1291 2
1292 1
1293 2
1294 1
1295 2
1296 1
1297 2
1298 1
1299 2
1300 1
1301 1
1302 2
1303 1
1304 2
1305 1
1306 2
1307 1
1308 2
1309 1
1310 2
1311 1
1312 2
1313 1
1314 2
1315 1
1316 2
1317 1
1318 2
1319 1
1320 2
1321 1
1322 2
1323 1
1324 2
1325 1
1326 2
1327 1
1328 2
1329 1
1330 2
1331 1
1332 2
1333 1
1334 2
1335 1
1336 2
1337 1
1338 2
1339 1
1340 2
1341 1
1342 2
1343 1
1344 2
1345 1
1346 2
1347 1
1348 2
1349 1
1350 2
1351 1
1352 2
1353 1
1354 2
1355 1
1356 2
1357 1
1358 2
1359 1
1360 2
1361 1
1362 2
1363 1
1364 2
1365 1
1366 2
1367 1
1368 2
1369 1
1370 2
1371 1
1372 2
1373 1
1374 2
1375 1
1376 2
1377 1
1378 2
1379 1
1380 2
1381 1
1382 2
1383 1
1384 2
1385 1
1386 2
1387 1
1388 2
1389 1
1390 2
1391 1
1392 2
1393 1
1394 2
1395 1
1396 2
1397 1
1398 2
1399 1
1400 2
1401 2
1402 1
1403 2
1404 1
1405 2
1406 1
1407 2
1408 1
1409 2
1410 1
1411 2
1412 1
1413 2
1414 1
1415 2
1416 1
1417 2
1418 1
1419 2
1420 1
1421 2
1422 1
1423 2
1424 1
1425 2
1426 1
1427 2
1428 1
1429 2
1430 1
1431 2
1432 1
1433 2
1434 1
1435 2
1436 1
1437 2
1438 1
1439 2
1440 1
1441 2
1442 1
1443 2
1444 1
1445 2
1446 1
1447 2
1448 1
1449 2
1450 1
1451 2
1452 1
1453 2
1454 1
1455 2
1456 1
1457 2
1458 1
1459 2
1460 1
1461 2
1462 1
1463 2
1464 1
1465 2
1466 1
1467 2
1468 1
1469 2
1470 1
1471 2
1472 1
1473 2
1474 1
1475 2
1476 1
1477 2
1478 1
1479 2
1480 1
1481 2
1482 1
1483 2
1484 1
1485 2
1486 1
1487 2
1488 1
1489 2
1490 1
1491 2
1492 1
1493 2
1494 1
1495 2
1496 1
1497 2
1498 1
1499 2
1500 1
1501 1
1502 2
1503 1
1504 2
1505 1
1506 2
1507 1
1508 2
1509 1
1510 2
1511 1
1512 2
1513 1
1514 2
1515 1
1516 2
1517 1
1518 2
1519 1
1520 2
1521 1
1522 2
1523 1
1524 2
1525 1
1526 2
1527 1
1528 2
1529 1
1530 2
1531 1
1532 2
1533 1
1534 2
1535 1
1536 2
1537 1
1538 2
1539 1
1540 2
1541 1
1542 2
1543 1
1544 2
1545 1
1546 2
1547 1
1548 2
1549 1
1550 2
1551 1
1552 2
1553 1
1554 2
1555 1
1556 2
1557 1
1558 2
1559 1
1560 2
1561 1
1562 2
1563 1
1564 2
1565 1
1566 2
1567 1
1568 2
1569 1
1570 2
1571 1
1572 2
1573 1
1574 2
1575 1
1576 2
1577 1
1578 2
1579 1
1580 2
1581 1
1582 2
1583 1
1584 2
1585 1
1586 2
1587 1
1588 2
1589 1
1590 2
1591 1
1592 2
1593 1
1594 2
1595 1
1596 2
1597 1
1598 2
1599 1
1600 2
1601 2
1602 1
1603 2
1604 1
1605 2
1606 1
1607 2
1608 1
1609 2
1610 1
1611 2
1612 1
1613 2
1614 1
1615 2
1616 1
1617 2
1618 1
1619 2
1620 1
1621 2
1622 1
1623 2
1624 1
1625 2
1626 1
1627 2
1628 1
1629 2
1630 1
1631 2
1632 1
1633 2
1634 1
1635 2
1636 1
1637 2
1638 1
1639 2
1640 1
1641 2
1642 1
1643 2
1644 1
1645 2
1646 1
1647 2
1648 1
1649 2
1650 1
1651 2
1652 1
1653 2
1654 1
1655 2
1656 1
1657 2
1658 1
1659 2
1660 1
1661 2
1662 1
1663 2
1664 1
1665 2
1666 1
1667 2
1668 1
1669 2
1670 1
1671 2
1672 1
1673 2
1674 1
1675 2
1676 1
1677 2
1678 1
1679 2
1680 1
1681 2
1682 1
1683 2
1684 1
1685 2
1686 1
1687 2
1688 1
1689 2
1690 1
1691 2
1692 1
1693 2
1694 1
1695 2
1696 1
1697 2
1698 1
1699 2
1700 1
1701 1
1702 2
1703 1
1704 2
1705 1
1706 2
1707 1
1708 2
1709 1
1710 2
1711 1
1712 2
1713 1
1714 2
1715 1
1716 2
1717 1
1718 2
1719 1
1720 2
1721 1
1722 2
1723 1
1724 2
1725 1
1726 2
1727 1
1728 2
1729 1
1730 2
1731 1
1732 2
1733 1
1734 2
1735 1
1736 2
1737 1
1738 2
1739 1
1740 2
1741 1
1742 2
1743 1
1744 2
1745 1
1746 2
1747 1
1748 2
1749 1
1750 2
1751 1
1752 2
1753 1
1754 2
1755 1
1756 2
1757 1
1758 2
1759 1
1760 2
1761 1
1762 2
1763 1
1764 2
1765 1
1766 2
1767 1
1768 2
1769 1
1770 2
1771 1
1772 2
1773 1
1774 2
1775 1
1776 2
1777 1
1778 2
1779 1
1780 2
1781 1
1782 2
1783 1
1784 2
1785 1
1786 2
1787 1
1788 2
1789 1
1790 2
1791 1
1792 2
1793 1
1794 2
1795 1
1796 2
1797 1
1798 2
1799 1
1800 2
1801 2
1802 1
1803 2
1804 1
1805 2
1806 1
1807 2
1808 1
1809 2
1810 1
1811 2
1812 1
1813 2
1814 1
1815 2
1816 1
1817 2
1818 1
1819 2
1820 1
1821 2
1822 1
1823 2
1824 1
1825 2
1826 1
1827 2
1828 1
1829 2
1830 1
1831 2
1832 1
1833 2
1834 1
1835 2
1836 1
1837 2
1838 1
1839 2
1840 1
1841 2
1842 1
1843 2
1844 1
1845 2
1846 1
1847 2
1848 1
1849 2
1850 1
1851 2
1852 1
1853 2
1854 1
1855 2
1856 1
1857 2
1858 1
1859 2
1860 1
1861 2
1862 1
1863 2
1864 1
1865 2
1866 1
1867 2
1868 1
1869 2
1870 1
1871 2
1872 1
1873 2
1874 1
1875 2
1876 1
1877 2
1878 1
1879 2
1880 1
1881 2
1882 1
1883 2
1884 1
1885 2
1886 1
1887 2
1888 1
1889 2
1890 1
1891 2
1892 1
1893 2
1894 1
1895 2
1896 1
1897 2
1898 1
1899 2
1900 1
1901 1
1902 2
1903 1
1904 2
1905 1
1906 2
1907 1
1908 2
1909 1
1910 2
1911 1
1912 2
1913 1
1914 2
1915 1
1916 2
1917 1
1918 2
1919 1
1920 2
1921 1
1922 2
1923 1
1924 2
1925 1
1926 2
1927 1
1928 2
1929 1
1930 2
1931 1
1932 2
1933 1
1934 2
1935 1
1936 2
1937 1
1938 2
1939 1
1940 2
1941 1
1942 2
1943 1
1944 2
1945 1
1946 2
1947 1
1948 2
1949 1
1950 2
1951 1
1952 2
1953 1
1954 2
1955 1
1956 2
1957 1
1958 2
1959 1
1960 2
1961 1
1962 2
1963 1
1964 2
1965 1
1966 2
1967 1
1968 2
1969 1
1970 2
1971 1
1972 2
1973 1
1974 2
1975 1
1976 2
1977 1
1978 2
1979 1
1980 2
1981 1
1982 2
1983 1
1984 2
1985 1
1986 2
1987 1
1988 2
1989 1
1990 2
1991 1
1992 2
1993 1
1994 2
1995 1
1996 2
1997 1
1998 2
1999 1
2000 2
2001 2
2002 1
2003 2
2004 1
2005 2
2006 1
2007 2
2008 1
2009 2
2010 1
2011 2
2012 1
2013 2
2014 1
2015 2
2016 1
2017 2
2018 1
2019 2
2020 1
2021 2
2022 1
2023 2
2024 1
2025 2
2026 1
2027 2
2028 1
2029 2
2030 1
2031 2
2032 1
2033 2
2034 1
2035 2
2036 1
2037 2
2038 1
2039 2
2040 1
2041 2
2042 1
2043 2
2044 1
2045 2
2046 1
2047 2
2048 1
2049 2
2050 1
2051 2
2052 1
2053 2
2054 1
2055 2
2056 1
2057 2
2058 1
2059 2
2060 1
2061 2
2062 1
2063 2
2064 1
2065 2
2066 1
2067 2
2068 1
2069 2
2070 1
2071 2
2072 1
2073 2
2074 1
2075 2
2076 1
2077 2
2078 1
2079 2
2080 1
2081 2
2082 1
2083 2
2084 1
2085 2
2086 1
2087 2
2088 1
2089 2
2090 1
2091 2
2092 1
2093 2
2094 1
2095 2
2096 1
2097 2
2098 1
2099 2
2100 1
2101 1
2102 2
2103 1
2104 2
2105 1
2106 2
2107 1
2108 2
2109 1
2110 2
2111 1
2112 2
2113 1
2114 2
2115 1
2116 2
2117 1
2118 2
2119 1
2120 2
2121 1
2122 2
2123 1
2124 2
2125 1
2126 2
2127 1
2128 2
2129 1
2130 2
2131 1
2132 2
2133 1
2134 2
2135 1
2136 2
2137 1
2138 2
2139 1
2140 2
2141 1
2142 2
2143 1
2144 2
2145 1
2146 2
2147 1
2148 2
2149 1
2150 2
2151 1
2152 2
2153 1
2154 2
2155 1
2156 2
2157 1
2158 2
2159 1
2160 2
2161 1
2162 2
2163 1
2164 2
2165 1
2166 2
2167 1
2168 2
2169 1
2170 2
2171 1
2172 2
2173 1
2174 2
2175 1
2176 2
2177 1
2178 2
2179 1
2180 2
2181 1
2182 2
2183 1
2184 2
2185 1
2186 2
2187 1
2188 2
2189 1
2190 2
2191 1
2192 2
2193 1
2194 2
2195 1
2196 2
2197 1
2198 2
2199 1
2200 2
2201 2
2202 1
2203 2
2204 1
2205 2
2206 1
2207 2
2208 1
2209 2
2210 1
2211 2
2212 1
2213 2
2214 1
2215 2
2216 1
2217 2
2218 1
2219 2
2220 1
2221 2
2222 1
2223 2
2224 1
2225 2
2226 1
2227 2
2228 1
2229 2
2230 1
2231 2
2232 1
2233 2
2234 1
2235 2
2236 1
2237 2
2238 1
2239 2
2240 1
2241 2
2242 1
2243 2
2244 1
2245 2
2246 1
2247 2
2248 1
2249 2
2250 1
2251 2
2252 1
2253 2
2254 1
2255 2
2256 1
2257 2
2258 1
2259 2
2260 1
2261 2
2262 1
2263 2
2264 1
2265 2
2266 1
2267 2
2268 1
2269 2
2270 1
2271 2
2272 1
2273 2
2274 1
2275 2
2276 1
2277 2
2278 1
2279 2
2280 1
2281 2
2282 1
2283 2
2284 1
2285 2
2286 1
2287 2
2288 1
2289 2
2290 1
2291 2
2292 1
2293 2
2294 1
2295 2
2296 1
2297 2
2298 1
2299 2
2300 1
2301 1
2302 2
2303 1
2304 2
2305 1
2306 2
2307 1
2308 2
2309 1
2310 2
2311 1
2312 2
2313 1
2314 2
2315 1
2316 2
2317 1
2318 2
2319 1
2320 2
2321 1
2322 2
2323 1
2324 2
2325 1
2326 2
2327 1
2328 2
2329 1
2330 2
2331 1
2332 2
2333 1
2334 2
2335 1
2336 2
2337 1
2338 2
2339 1
2340 2
2341 1
2342 2
2343 1
2344 2
2345 1
2346 2
2347 1
2348 2
2349 1
2350 2
2351 1
2352 2
2353 1
2354 2
2355 1
2356 2
2357 1
2358 2
2359 1
2360 2
2361 1
2362 2
2363 1
2364 2
2365 1
2366 2
2367 1
2368 2
2369 1
2370 2
2371 1
2372 2
2373 1
2374 2
2375 1
2376 2
2377 1
2378 2
2379 1
2380 2
2381 1
2382 2
2383 1
2384 2
2385 1
2386 2
2387 1
2388 2
2389 1
2390 2
2391 1
2392 2
2393 1
2394 2
2395 1
2396 2
2397 1
2398 2
2399 1
2400 2
2401 2
2402 1
2403 2
2404 1
2405 2
2406 1
2407 2
2408 1
2409 2
2410 1
2411 2
2412 1
2413 2
2414 1
2415 2
2416 1
2417 2
2418 1
2419 2
2420 1
2421 2
2422 1
2423 2
2424 1
2425 2
2426 1
2427 2
2428 1
2429 2
2430 1
2431 2
2432 1
2433 2
2434 1
2435 2
2436 1
2437 2
2438 1
2439 2
2440 1
2441 2
2442 1
2443 2
2444 1
2445 2
2446 1
2447 2
2448 1
2449 2
2450 1
2451 2
2452 1
2453 2
2454 1
2455 2
2456 1
2457 2
2458 1
2459 2
2460 1
2461 2
2462 1
2463 2
2464 1
2465 2
2466 1
2467 2
2468 1
2469 2
2470 1
2471 2
2472 1
2473 2
2474 1
2475 2
2476 1
2477 2
2478 1
2479 2
2480 1
2481 2
2482 1
2483 2
2484 1
2485 2
2486 1
2487 2
2488 1
2489 2
2490 1
2491 2
2492 1
2493 2
2494 1
2495 2
2496 1
2497 2
2498 1
2499 2
2500 1
2501 1
2502 2
2503 1
2504 2
2505 1
2506 2
2507 1
2508 2
2509 1
2510 2
2511 1
2512 2
2513 1
2514 2
2515 1
2516 2
2517 1
2518 2
2519 1
2520 2
2521 1
2522 2
2523 1
2524 2
2525 1
2526 2
2527 1
2528 2
2529 1
2530 2
2531 1
2532 2
2533 1
2534 2
2535 1
2536 2
2537 1
2538 2
2539 1
2540 2
2541 1
2542 2
2543 1
2544 2
2545 1
2546 2
2547 1
2548 2
2549 1
2550 2
2551 1
2552 2
2553 1
2554 2
2555 1
2556 2
2557 1
2558 2
2559 1
2560 2
2561 1
2562 2
2563 1
2564 2
2565 1
2566 2
2567 1
2568 2
2569 1
2570 2
2571 1
2572 2
2573 1
2574 2
2575 1
2576 2
2577 1
2578 2
2579 1
2580 2
2581 1
2582 2
2583 1
2584 2
2585 1
2586 2
2587 1
2588 2
2589 1
2590 2
2591 1
2592 2
2593 1
2594 2
2595 1
2596 2
2597 1
2598 2
2599 1
2600 2
2601 2
2602 1
2603 2
2604 1
2605 2
2606 1
2607 2
2608 1
2609 2
2610 1
2611 2
2612 1
2613 2
2614 1
2615 2
2616 1
2617 2
2618 1
2619 2
2620 1
2621 2
2622 1
2623 2
2624 1
2625 2
2626 1
2627 2
2628 1
2629 2
2630 1
2631 2
2632 1
2633 2
2634 1
2635 2
2636 1
2637 2
2638 1
2639 2
2640 1
2641 2
2642 1
2643 2
2644 1
2645 2
2646 1
2647 2
2648 1
2649 2
2650 1
2651 2
2652 1
2653 2
2654 1
2655 2
2656 1
2657 2
2658 1
2659 2
2660 1
2661 2
2662 1
2663 2
2664 1
2665 2
2666 1
2667 2
2668 1
2669 2
2670 1
2671 2
2672 1
2673 2
2674 1
2675 2
2676 1
2677 2
2678 1
2679 2
2680 1
2681 2
2682 1
2683 2
2684 1
2685 2
2686 1
2687 2
2688 1
2689 2
2690 1
2691 2
2692 1
2693 2
2694 1
2695 2
2696 1
2697 2
2698 1
2699 2
2700 1
2701 1
2702 2
2703 1
2704 2
2705 1
2706 2
2707 1
2708 2
2709 1
2710 2
2711 1
2712 2
2713 1
2714 2
2715 1
2716 2
2717 1
2718 2
2719 1
2720 2
2721 1
2722 2
2723 1
2724 2
2725 1
2726 2
2727 1
2728 2
2729 1
2730 2
2731 1
2732 2
2733 1
2734 2
2735 1
2736 2
2737 1
2738 2
2739 1
2740 2
2741 1
2742 2
2743 1
2744 2
2745 1
2746 2
2747 1
2748 2
2749 1
2750 2
2751 1
2752 2
2753 1
2754 2
2755 1
2756 2
2757 1
2758 2
2759 1
2760 2
2761 1
2762 2
2763 1
2764 2
2765 1
2766 2
2767 1
2768 2
2769 1
2770 2
2771 1
2772 2
2773 1
2774 2
2775 1
2776 2
2777 1
2778 2
2779 1
2780 2
2781 1
2782 2
2783 1
2784 2
2785 1
2786 2
2787 1
2788 2
2789 1
2790 2
2791 1
2792 2
2793 1
2794 2
2795 1
2796 2
2797 1
2798 2
2799 1
2800 2
2801 2
2802 1
2803 2
2804 1
2805 2
2806 1
2807 2
2808 1
2809 2
2810 1
2811 2
2812 1
2813 2
2814 1
2815 2
2816 1
2817 2
2818 1
2819 2
2820 1
2821 2
2822 1
2823 2
2824 1
2825 2
2826 1
2827 2
2828 1
2829 2
2830 1
2831 2
2832 1
2833 2
2834 1
2835 2
2836 1
2837 2
2838 1
2839 2
2840 1
2841 2
2842 1
2843 2
2844 1
2845 2
2846 1
2847 2
2848 1
2849 2
2850 1
2851 2
2852 1
2853 2
2854 1
2855 2
2856 1
2857 2
2858 1
2859 2
2860 1
2861 2
2862 1
2863 2
2864 1
2865 2
2866 1
2867 2
2868 1
2869 2
2870 1
2871 2
2872 1
2873 2
2874 1
2875 2
2876 1
2877 2
2878 1
2879 2
2880 1
2881 2
2882 1
2883 2
2884 1
2885 2
2886 1
2887 2
2888 1
2889 2
2890 1
2891 2
2892 1
2893 2
2894 1
2895 2
2896 1
2897 2
2898 1
2899 2
2900 1
2901 1
2902 2
2903 1
2904 2
2905 1
2906 2
2907 1
2908 2
2909 1
2910 2
2911 1
2912 2
2913 1
2914 2
2915 1
2916 2
2917 1
2918 2
2919 1
2920 2
2921 1
2922 2
2923 1
2924 2
2925 1
2926 2
2927 1
2928 2
2929 1
2930 2
2931 1
2932 2
2933 1
2934 2
2935 1
2936 2
2937 1
2938 2
2939 1
2940 2
2941 1
2942 2
2943 1
2944 2
2945 1
2946 2
2947 1
2948 2
2949 1
2950 2
2951 1
2952 2
2953 1
2954 2
2955 1
2956 2
2957 1
2958 2
2959 1
2960 2
2961 1
2962 2
2963 1
2964 2
2965 1
2966 2
2967 1
2968 2
2969 1
2970 2
2971 1
2972 2
2973 1
2974 2
2975 1
2976 2
2977 1
2978 2
2979 1
2980 2
2981 1
2982 2
2983 1
2984 2
2985 1
2986 2
2987 1
2988 2
2989 1
2990 2
2991 1
2992 2
2993 1
2994 2
2995 1
2996 2
2997 1
2998 2
2999 1
3000 2
